1759.0 21180.0 33.0 
1643.0 21533.0 0.0 
1693.0 21261.0 0.0 
1676.0 21299.0 0.0 
1630.0 21660.0 0.0 
1613.0 20903.0 83.0 
1647.0 21015.0 46.0 
1602.0 20844.0 755.0 
1613.0 20721.0 126.0 
1644.0 21333.0 0.0 
1680.0 21253.0 16.0 
1604.0 21417.0 149.0 
1694.0 21225.0 0.0 
1590.0 21146.0 878.0 
1573.0 21474.0 1240.0 
1631.0 21238.0 33.0 
1634.0 21285.0 3.0 
1573.0 21474.0 1240.0 
1598.0 20876.0 706.0 
1694.0 21225.0 0.0 
1814.0 21185.0 0.0 
1631.0 21238.0 33.0 
1579.0 21324.0 414.0 
1658.0 20922.0 46.0 
1623.0 20731.0 65.0 
1648.0 20953.0 46.0 
1683.0 21268.0 0.0 
1648.0 21183.0 33.0 
1581.0 21191.0 397.0 
1593.0 20863.0 755.0 
1629.0 20695.0 426.0 
1637.0 21645.0 0.0 
1610.0 20623.0 617.0 
